14° run output:
{
    "Function": "kroA300.tsp",
    "Problem dimension": [
        181,
        102,
        126,
        253,
        42,
        4,
        70,
        186,
        166,
        213,
        144,
        93,
        143,
        254,
        219,
        88,
        72,
        157,
        48,
        36,
        10,
        152,
        51,
        246,
        289,
        0,
        135,
        295,
        146,
        290,
        265,
        133,
        217,
        257,
        139,
        172,
        211,
        20,
        107,
        43,
        287,
        258,
        204,
        3,
        53,
        297,
        299,
        182,
        224,
        154,
        223,
        192,
        268,
        279,
        29,
        163,
        44,
        130,
        240,
        22,
        278,
        75,
        227,
        74,
        89,
        104,
        170,
        189,
        280,
        91,
        243,
        207,
        79,
        64,
        249,
        5,
        122,
        183,
        179,
        283,
        71,
        52,
        47,
        205,
        50,
        273,
        58,
        229,
        49,
        226,
        106,
        84,
        171,
        125,
        241,
        13,
        216,
        175,
        208,
        128,
        235,
        250,
        271,
        111,
        108,
        160,
        12,
        110,
        237,
        56,
        105,
        148,
        23,
        11,
        2,
        162,
        190,
        298,
        282,
        60,
        1,
        177,
        233,
        136,
        40,
        196,
        96,
        98,
        80,
        225,
        285,
        38,
        142,
        267,
        270,
        244,
        242,
        114,
        81,
        292,
        193,
        127,
        17,
        131,
        61,
        67,
        150,
        215,
        149,
        167,
        214,
        132,
        228,
        87,
        199,
        147,
        129,
        294,
        277,
        112,
        195,
        57,
        97,
        9,
        178,
        65,
        263,
        184,
        159,
        66,
        264,
        27,
        85,
        201,
        37,
        288,
        21,
        7,
        262,
        55,
        194,
        101,
        251,
        103,
        45,
        275,
        198,
        220,
        155,
        99,
        32,
        174,
        141,
        173,
        14,
        116,
        134,
        203,
        153,
        260,
        255,
        124,
        296,
        35,
        291,
        30,
        82,
        261,
        62,
        15,
        180,
        69,
        151,
        94,
        269,
        231,
        202,
        92,
        95,
        169,
        259,
        165,
        73,
        248,
        245,
        200,
        123,
        247,
        118,
        121,
        164,
        86,
        6,
        31,
        28,
        176,
        119,
        63,
        239,
        185,
        41,
        46,
        156,
        284,
        115,
        197,
        206,
        25,
        161,
        238,
        209,
        212,
        252,
        68,
        113,
        33,
        210,
        140,
        26,
        256,
        77,
        232,
        236,
        54,
        59,
        272,
        222,
        168,
        34,
        137,
        117,
        286,
        19,
        281,
        266,
        191,
        109,
        218,
        145,
        16,
        24,
        78,
        39,
        230,
        221,
        120,
        187,
        8,
        83,
        274,
        276,
        138,
        76,
        100,
        158,
        18,
        234,
        188,
        90,
        293
    ],
    "Global Optimum": 0,
    "Algorithm": "Genetic algorithm",
    "Parameters": {
        "population": 30,
        "offspring": 30,
        "mutation probability": 0.0033333333333333335,
        "crossover probability": 0.9
    },
    "Fitness": 274385,
    "Solution": [
        181,
        102,
        126,
        253,
        42,
        4,
        70,
        186,
        166,
        213,
        144,
        93,
        143,
        254,
        219,
        88,
        72,
        157,
        48,
        36,
        10,
        152,
        51,
        246,
        289,
        0,
        135,
        295,
        146,
        290,
        265,
        133,
        217,
        257,
        139,
        172,
        211,
        20,
        107,
        43,
        287,
        258,
        204,
        3,
        53,
        297,
        299,
        182,
        224,
        154,
        223,
        192,
        268,
        279,
        29,
        163,
        44,
        130,
        240,
        22,
        278,
        75,
        227,
        74,
        89,
        104,
        170,
        189,
        280,
        91,
        243,
        207,
        79,
        64,
        249,
        5,
        122,
        183,
        179,
        283,
        71,
        52,
        47,
        205,
        50,
        273,
        58,
        229,
        49,
        226,
        106,
        84,
        171,
        125,
        241,
        13,
        216,
        175,
        208,
        128,
        235,
        250,
        271,
        111,
        108,
        160,
        12,
        110,
        237,
        56,
        105,
        148,
        23,
        11,
        2,
        162,
        190,
        298,
        282,
        60,
        1,
        177,
        233,
        136,
        40,
        196,
        96,
        98,
        80,
        225,
        285,
        38,
        142,
        267,
        270,
        244,
        242,
        114,
        81,
        292,
        193,
        127,
        17,
        131,
        61,
        67,
        150,
        215,
        149,
        167,
        214,
        132,
        228,
        87,
        199,
        147,
        129,
        294,
        277,
        112,
        195,
        57,
        97,
        9,
        178,
        65,
        263,
        184,
        159,
        66,
        264,
        27,
        85,
        201,
        37,
        288,
        21,
        7,
        262,
        55,
        194,
        101,
        251,
        103,
        45,
        275,
        198,
        220,
        155,
        99,
        32,
        174,
        141,
        173,
        14,
        116,
        134,
        203,
        153,
        260,
        255,
        124,
        296,
        35,
        291,
        30,
        82,
        261,
        62,
        15,
        180,
        69,
        151,
        94,
        269,
        231,
        202,
        92,
        95,
        169,
        259,
        165,
        73,
        248,
        245,
        200,
        123,
        247,
        118,
        121,
        164,
        86,
        6,
        31,
        28,
        176,
        119,
        63,
        239,
        185,
        41,
        46,
        156,
        284,
        115,
        197,
        206,
        25,
        161,
        238,
        209,
        212,
        252,
        68,
        113,
        33,
        210,
        140,
        26,
        256,
        77,
        232,
        236,
        54,
        59,
        272,
        222,
        168,
        34,
        137,
        117,
        286,
        19,
        281,
        266,
        191,
        109,
        218,
        145,
        16,
        24,
        78,
        39,
        230,
        221,
        120,
        187,
        8,
        83,
        274,
        276,
        138,
        76,
        100,
        158,
        18,
        234,
        188,
        90,
        293
    ],
    "Nb of functions evaluations": 200010,
    "Computational time in seconds": 319.94372057914734,
    "Stopping criterion in evaluations": 200000
}